12 23
1 3 270
1 8 339
1 11 365
2 4 352
2 6 323
2 11 338
3 4 334
3 5 245
3 8 70
3 10 183
4 6 305
4 7 339
4 11 356
5 8 209
5 10 151
6 7 420
7 9 382
7 10 361
7 12 259
8 10 116
9 10 357
9 12 138
10 12 259
